(set-logic HORN)

(declare-datatypes ((node 0)) (((node  (data Int) (next Int) (prev Int)))))
(declare-datatypes ((HeapObject 0)) (((O_Int  (getInt Int)) (O_UInt  (getUInt Int)) (O_Addr  (getAddr Int)) (O_node  (getnode node)) (defObj ))))
(declare-datatypes ((Heap 0)) (((HeapCtor  (HeapSize Int) (HeapContents (Array Int HeapObject))))))

(declare-fun |inv_main4| ( Heap Int Int ) Bool)
(declare-fun |inv_main52| ( Heap Int Int Int Int Int Int Int Int Int ) Bool)
(declare-fun |inv_main51| ( Heap Int Int Int Int Int Int Int Int Int ) Bool)
(declare-fun |inv_main12| ( Heap Int Int Int Int Int Int ) Bool)
(declare-fun |inv_main53| ( Heap Int Int Int Int Int Int Int Int Int ) Bool)
(declare-fun |inv_main56| ( Heap Int Int Int Int Int Int Int Int Int ) Bool)
(declare-fun |inv_main65| ( Heap Int Int Int Int Int ) Bool)
(declare-fun |CHC_COMP_FALSE| ( ) Bool)
(declare-fun |inv_main78| ( Heap Int Int Int Int Int Int ) Bool)
(declare-fun |inv_main40| ( Heap Int Int Int Int Int Int Int Int ) Bool)
(declare-fun |inv_main63| ( Heap Int Int Int Int Int ) Bool)
(declare-fun |inv_main8| ( Heap Int Int Int Int Int ) Bool)
(declare-fun |inv_main19| ( Heap Int Int Int Int Int Int ) Bool)
(declare-fun |inv_main66| ( Heap Int Int Int Int Int Int ) Bool)
(declare-fun |inv_main34| ( Heap Int Int Int Int Int Int Int Int ) Bool)
(declare-fun |inv_main18| ( Heap Int Int Int Int Int Int ) Bool)
(declare-fun |inv_main60| ( Heap Int Int Int Int Int Int Int Int Int ) Bool)
(declare-fun |inv_main48| ( Heap Int Int Int Int Int Int Int Int Int ) Bool)
(declare-fun |inv_main41| ( Heap Int Int Int Int Int Int Int Int ) Bool)
(declare-fun |inv_main22| ( Heap Int Int Int Int Int Int ) Bool)
(declare-fun |inv_main45| ( Heap Int Int Int Int Int Int Int Int Int ) Bool)
(declare-fun |inv_main54| ( Heap Int Int Int Int Int Int Int Int Int ) Bool)
(declare-fun |inv_main81| ( Heap Int Int Int Int Int ) Bool)

(assert
  (forall ( (A Heap) (v_1 Int) (v_2 Int) ) 
    (=>
      (and
        (and (= A (HeapCtor 0 ((as const (Array Int HeapObject)) defObj)))
     (= 2 v_1)
     (= 1 v_2))
      )
      (inv_main4 A v_1 v_2)
    )
  )
)
(assert
  (forall ( (A Int) (B Int) (C Int) (D Int) (E Int) (F Int) (G Heap) ) 
    (=>
      (and
        (inv_main65 G F E D C B)
        (let ((a!1 (ite (and (not (<= C 0)) (>= (HeapSize G) C))
                (select (HeapContents G) C)
                defObj)))
  (and ((_ is O_node) a!1) (= A (next (getnode a!1)))))
      )
      (inv_main66 G F E D C B A)
    )
  )
)
(assert
  (forall ( (A Int) (B Int) (C Int) (D Int) (E Int) (F Int) (G Int) (H Int) (I Int) (J Heap) (v_10 Int) ) 
    (=>
      (and
        (inv_main45 J I H G F E D C B A)
        (and (<= 1 D) (= v_10 A))
      )
      (inv_main48 J I H G F E D C A v_10)
    )
  )
)
(assert
  (forall ( (A Int) (B Int) (C Int) (D Int) (E Int) (F Int) (G Heap) ) 
    (=>
      (and
        (inv_main66 G F E D C B A)
        (let ((a!1 (ite (and (not (<= C 0)) (>= (HeapSize G) C))
                (select (HeapContents G) C)
                defObj)))
(let ((a!2 (not (= E (data (getnode a!1))))))
  (and ((_ is O_node) a!1) a!2)))
      )
      (inv_main81 G F E D C B)
    )
  )
)
(assert
  (forall ( (A Int) (B Int) (C Int) (D Int) (E Int) (F Heap) ) 
    (=>
      (and
        (inv_main63 F E D C B A)
        (and (not (= A (+ 1 E))) (= B 0))
      )
      (inv_main81 F E D C B A)
    )
  )
)
(assert
  (forall ( (A Int) (B Int) (C Int) (D Int) (E Int) (F Int) (G Int) (H Int) (I Int) (J Heap) ) 
    (=>
      (and
        (inv_main45 J I H G F E D C B A)
        (and (not (<= 1 D)) (= B 0))
      )
      (inv_main52 J I H G F E D C B A)
    )
  )
)
(assert
  (forall ( (A Int) (B Int) (C Int) (D Int) (E Int) (F Heap) (G Int) (H Int) (I Int) (J Int) (K Int) (L Int) (M Int) (N Heap) ) 
    (=>
      (and
        (inv_main19 N M L K J I H)
        (let ((a!1 (ite (and (not (<= H 0)) (>= (HeapSize N) H))
                (select (HeapContents N) H)
                defObj)))
(let ((a!2 (O_node (node (data (getnode a!1)) (next (getnode a!1)) 0))))
(let ((a!3 (ite (and (not (<= H 0)) (>= (HeapSize N) H))
                (HeapCtor (HeapSize N) (store (HeapContents N) H a!2))
                N)))
  (and (= C K)
       (= B J)
       (= A H)
       (not (= G 0))
       (= G I)
       (= E M)
       (= F a!3)
       ((_ is O_node) a!1)
       (= D L)))))
      )
      (inv_main22 F E D C B G A)
    )
  )
)
(assert
  (forall ( (A Int) (B Int) (C Int) (D Int) (E Int) (F Int) (G Int) (H Int) (I Heap) (J Int) (K Int) (L Int) (M Int) (N Int) (O Int) (P Int) (Q Int) (R Int) (S Int) (T Heap) ) 
    (=>
      (and
        (inv_main52 T S R Q P O N M L K)
        (let ((a!1 (ite (and (not (<= M 0)) (>= (HeapSize T) M))
                (select (HeapContents T) M)
                defObj)))
(let ((a!2 (O_node (node (data (getnode a!1)) Q (prev (getnode a!1))))))
(let ((a!3 (ite (and (not (<= M 0)) (>= (HeapSize T) M))
                (HeapCtor (HeapSize T) (store (HeapContents T) M a!2))
                T)))
  (and (= E O)
       (= D N)
       (= C M)
       (= B L)
       (= A K)
       (not (= J 0))
       (= J Q)
       (= H S)
       (= G R)
       (= I a!3)
       ((_ is O_node) a!1)
       (= F P)))))
      )
      (inv_main60 I H G J F E D C B A)
    )
  )
)
(assert
  (forall ( (A Heap) (B Int) (C Int) (D Int) (E Int) (F Int) (G Int) (H Heap) ) 
    (=>
      (and
        (inv_main12 H G F E D C B)
        (let ((a!1 (ite (and (not (<= B 0)) (>= (HeapSize H) B))
                (select (HeapContents H) B)
                defObj)))
(let ((a!2 (O_node (node D (next (getnode a!1)) (prev (getnode a!1))))))
(let ((a!3 (ite (and (not (<= B 0)) (>= (HeapSize H) B))
                (HeapCtor (HeapSize H) (store (HeapContents H) B a!2))
                H)))
  (and ((_ is O_node) a!1) (= A a!3)))))
      )
      (inv_main18 A G F E D C B)
    )
  )
)
(assert
  (forall ( (A Heap) (B Int) (C Int) (D Int) (E Int) (F Int) (G Int) (H Int) (I Int) (J Int) (K Heap) ) 
    (=>
      (and
        (inv_main51 K J I H G F E D C B)
        (let ((a!1 (ite (and (not (<= C 0)) (>= (HeapSize K) C))
                (select (HeapContents K) C)
                defObj)))
(let ((a!2 (O_node (node (data (getnode a!1)) D (prev (getnode a!1))))))
(let ((a!3 (ite (and (not (<= C 0)) (>= (HeapSize K) C))
                (HeapCtor (HeapSize K) (store (HeapContents K) C a!2))
                K)))
  (and ((_ is O_node) a!1) (= A a!3)))))
      )
      (inv_main53 A J I H G F E D C B)
    )
  )
)
(assert
  (forall ( (A Heap) (B Int) (C Int) (D Int) (E Int) (F Int) (G Int) (H Heap) ) 
    (=>
      (and
        (inv_main18 H G F E D C B)
        (let ((a!1 (ite (and (not (<= B 0)) (>= (HeapSize H) B))
                (select (HeapContents H) B)
                defObj)))
(let ((a!2 (O_node (node (data (getnode a!1)) C (prev (getnode a!1))))))
(let ((a!3 (ite (and (not (<= B 0)) (>= (HeapSize H) B))
                (HeapCtor (HeapSize H) (store (HeapContents H) B a!2))
                H)))
  (and ((_ is O_node) a!1) (= A a!3)))))
      )
      (inv_main19 A G F E D C B)
    )
  )
)
(assert
  (forall ( (A Heap) (B Int) (C Int) (D Int) (E Int) (F Int) (G Int) (H Int) (I Int) (J Heap) ) 
    (=>
      (and
        (inv_main40 J I H G F E D C B)
        (let ((a!1 (ite (and (not (<= B 0)) (>= (HeapSize J) B))
                (select (HeapContents J) B)
                defObj)))
(let ((a!2 (O_node (node (data (getnode a!1)) (next (getnode a!1)) 0))))
(let ((a!3 (ite (and (not (<= B 0)) (>= (HeapSize J) B))
                (HeapCtor (HeapSize J) (store (HeapContents J) B a!2))
                J)))
  (and ((_ is O_node) a!1) (= A a!3)))))
      )
      (inv_main41 A I H G F E D C B)
    )
  )
)
(assert
  (forall ( (A Int) (B Int) (C Int) (D Int) (E Int) (F Int) (G Int) (H Int) (I Heap) (J Int) (K Int) (L Int) (M Int) (N Int) (O Int) (P Int) (Q Int) (R Int) (S Int) (T Heap) ) 
    (=>
      (and
        (inv_main54 T S R Q P O N M L K)
        (let ((a!1 (ite (and (not (<= M 0)) (>= (HeapSize T) M))
                (select (HeapContents T) M)
                defObj)))
(let ((a!2 (O_node (node (data (getnode a!1)) K (prev (getnode a!1))))))
(let ((a!3 (ite (and (not (<= M 0)) (>= (HeapSize T) M))
                (HeapCtor (HeapSize T) (store (HeapContents T) M a!2))
                T)))
  (and (= E P)
       (= D O)
       (= C N)
       (= B M)
       (= A L)
       (not (= J 0))
       (= J K)
       (= H S)
       (= G R)
       (= I a!3)
       ((_ is O_node) a!1)
       (= F Q)))))
      )
      (inv_main56 I H G F E D C B A J)
    )
  )
)
(assert
  (forall ( (A Int) (B Int) (C Int) (D Int) (E Int) (F Int) (G Heap) (H Int) (I Int) (J Int) (K Int) (L Int) (M Int) (N Int) (O Heap) (P Int) (Q Int) (R Int) (S Int) (T Int) (U Int) (V Int) (W Heap) ) 
    (=>
      (and
        (inv_main78 W V U T S R Q)
        (let ((a!1 (ite (and (not (<= Q 0)) (>= (HeapSize W) Q))
                (select (HeapContents W) Q)
                defObj))
      (a!2 (ite (and (not (<= I 0)) (>= (HeapSize O) I))
                (HeapCtor (HeapSize O) (store (HeapContents O) I defObj))
                O)))
  (and (= B J)
       (= A I)
       (= I Q)
       (= H (next (getnode a!1)))
       (= F N)
       (= E M)
       (= D L)
       (= M U)
       (= L T)
       (= K S)
       (= J R)
       (not (= P 0))
       (= P H)
       (= N V)
       (= G a!2)
       (= O W)
       ((_ is O_node) a!1)
       (= C K)))
      )
      (inv_main78 G F E D C B P)
    )
  )
)
(assert
  (forall ( (A Int) (B Int) (C Int) (D Int) (E Int) (F Heap) (v_6 Int) ) 
    (=>
      (and
        (inv_main63 F E D C B A)
        (and (= B 0) (= A (+ 1 E)) (not (= C 0)) (= v_6 C))
      )
      (inv_main78 F E D C B A v_6)
    )
  )
)
(assert
  (forall ( (A Int) (B Int) (C Int) (D Int) (E Int) (F Int) (G Int) (H Int) (I Int) (J Int) (K Int) (L Heap) (M Int) (N Int) (O Int) (P Int) (Q Int) (R Int) (S Int) (T Int) (U Int) (V Heap) ) 
    (=>
      (and
        (inv_main48 V U T S R Q P O N M)
        (let ((a!1 (ite (and (not (<= M 0)) (>= (HeapSize V) M))
                (select (HeapContents V) M)
                defObj)))
  (and (= A (+ (- 1) F))
       (= H R)
       (= G Q)
       (= F P)
       (= E O)
       (= D N)
       (= C M)
       (= K U)
       (= J T)
       (= I S)
       (= L V)
       ((_ is O_node) a!1)
       (= B (next (getnode a!1)))))
      )
      (inv_main45 L K J I H G A E D B)
    )
  )
)
(assert
  (forall ( (A Int) (B Int) (C Int) (D Int) (E Int) (F Int) (G Int) (H Int) (I Int) (J Int) (K Int) (L Int) (M Int) (N Int) (O Int) (P Int) (Q Heap) (R Heap) (S Int) (T Int) (U Int) (V Int) (W Int) (X Int) (Y Int) (Z Int) (A1 Heap) (v_27 Int) ) 
    (=>
      (and
        (inv_main41 A1 Z Y X W V U T S)
        (let ((a!1 (ite (and (not (<= S 0)) (>= (HeapSize A1) S))
                (select (HeapContents A1) S)
                defObj)))
(let ((a!2 (O_node (node T (next (getnode a!1)) (prev (getnode a!1))))))
(let ((a!3 (ite (and (not (<= S 0)) (>= (HeapSize A1) S))
                (HeapCtor (HeapSize A1) (store (HeapContents A1) S a!2))
                A1)))
  (and (= B 0)
       (= A T)
       (= G V)
       (= F E)
       (= E U)
       (= D C)
       (= M Y)
       (= L K)
       (= K X)
       (= J I)
       (= I W)
       (= H G)
       (= P O)
       (= O Z)
       (= N M)
       (= Q a!3)
       (= R Q)
       ((_ is O_node) a!1)
       (= C S)
       (= v_27 L)))))
      )
      (inv_main45 R P N L J H F D B v_27)
    )
  )
)
(assert
  (forall ( (A Int) (B Int) (C Int) (D Int) (E Int) (F Heap) ) 
    (=>
      (and
        (inv_main63 F E D C B A)
        (not (= B 0))
      )
      (inv_main65 F E D C B A)
    )
  )
)
(assert
  (forall ( (A Int) (B Int) (C Int) (D Int) (E Int) (F Int) (G Int) (H Int) (I Int) (J Int) (K Int) (L Int) (M Int) (N node) (O Heap) (P Heap) (Q Int) (R Int) (S Int) (T Int) (U Int) (V Int) (W Heap) (X Int) ) 
    (=>
      (and
        (inv_main8 W V U T S R)
        (let ((a!1 (HeapCtor (+ 1 (HeapSize O))
                     (store (HeapContents O) (+ 1 (HeapSize O)) (O_node N))))
      (a!2 (not (<= 1 (+ V (* (- 2) X)))))
      (a!3 (not (<= 1 (+ (* (- 1) V) (* 2 X))))))
  (and (= D U)
       (= C B)
       (= B X)
       (= A D)
       (= J U)
       (= I H)
       (= H R)
       (= G F)
       (= F 3)
       (= E D)
       (= M L)
       (= L V)
       (= K J)
       (= Q (+ 1 (HeapSize O)))
       (= O W)
       (= P a!1)
       (not (<= 1 T))
       (<= (- 1) (+ (* (- 1) V) (* 2 X)))
       (<= (- 1) (+ V (* (- 2) X)))
       (or a!2 (<= 1 V))
       (or a!3 (<= V (- 1)))
       (not (= 0 Q))))
      )
      (inv_main34 P M K I G E C A Q)
    )
  )
)
(assert
  (forall ( (A Int) (B Int) (C Int) (D Int) (E Int) (F Int) (G Int) (H Int) (I Int) (J Heap) ) 
    (=>
      (and
        (inv_main45 J I H G F E D C B A)
        (and (not (<= 1 D)) (not (= B 0)))
      )
      (inv_main51 J I H G F E D C B A)
    )
  )
)
(assert
  (forall ( (A Int) (B Int) (C Int) (D Int) (E Int) (F node) (G Heap) (H Int) (I Int) (J Int) (K Int) (L Int) (M Int) (N Heap) ) 
    (=>
      (and
        (inv_main8 N M L K J I)
        (let ((a!1 (HeapCtor (+ 1 (HeapSize N))
                     (store (HeapContents N) (+ 1 (HeapSize N)) (O_node F)))))
  (and (= D L)
       (= C K)
       (= B J)
       (= A I)
       (= H (+ 1 (HeapSize N)))
       (= E M)
       (= G a!1)
       (<= 1 K)
       (not (= 0 H))))
      )
      (inv_main12 G E D C B A H)
    )
  )
)
(assert
  (forall ( (A Int) (B Int) (C Int) (D Int) (E Int) (F Int) (G Int) (H Heap) (I Int) (J Int) (K Int) (L Int) (M Int) (N Int) (O Heap) ) 
    (=>
      (and
        (inv_main22 O N M L K J I)
        (let ((a!1 (ite (and (not (<= J 0)) (>= (HeapSize O) J))
                (select (HeapContents O) J)
                defObj)))
(let ((a!2 (O_node (node (data (getnode a!1)) (next (getnode a!1)) I))))
(let ((a!3 (ite (and (not (<= J 0)) (>= (HeapSize O) J))
                (HeapCtor (HeapSize O) (store (HeapContents O) J a!2))
                O)))
  (and (= E L)
       (= D K)
       (= C J)
       (= B I)
       (= G N)
       (= F M)
       (= H a!3)
       ((_ is O_node) a!1)
       (= A (+ (- 1) E))))))
      )
      (inv_main8 H G F A D B)
    )
  )
)
(assert
  (forall ( (A Int) (B Int) (C Int) (D Int) (E Int) (F Int) (G Heap) (H Int) (I Int) (J Int) (K Int) (L Int) (M Int) (N Int) (O Heap) ) 
    (=>
      (and
        (inv_main19 O N M L K J I)
        (let ((a!1 (ite (and (not (<= I 0)) (>= (HeapSize O) I))
                (select (HeapContents O) I)
                defObj)))
(let ((a!2 (O_node (node (data (getnode a!1)) (next (getnode a!1)) 0))))
(let ((a!3 (ite (and (not (<= I 0)) (>= (HeapSize O) I))
                (HeapCtor (HeapSize O) (store (HeapContents O) I a!2))
                O)))
  (and (= E M)
       (= D L)
       (= C K)
       (= B I)
       (= H 0)
       (= H J)
       (= F N)
       (= G a!3)
       ((_ is O_node) a!1)
       (= A (+ (- 1) D))))))
      )
      (inv_main8 G F E A C B)
    )
  )
)
(assert
  (forall ( (A Int) (B Int) (C Heap) (v_3 Int) (v_4 Int) (v_5 Int) ) 
    (=>
      (and
        (inv_main4 C B A)
        (and (= v_3 B) (= v_4 A) (= 0 v_5))
      )
      (inv_main8 C B A v_3 v_4 v_5)
    )
  )
)
(assert
  (forall ( (A Heap) (B Int) (C Int) (D Int) (E Int) (F Int) (G Int) (H Int) (I Int) (J Heap) ) 
    (=>
      (and
        (inv_main34 J I H G F E D C B)
        (let ((a!1 (ite (and (not (<= B 0)) (>= (HeapSize J) B))
                (select (HeapContents J) B)
                defObj)))
(let ((a!2 (O_node (node (data (getnode a!1)) 0 (prev (getnode a!1))))))
(let ((a!3 (ite (and (not (<= B 0)) (>= (HeapSize J) B))
                (HeapCtor (HeapSize J) (store (HeapContents J) B a!2))
                J)))
  (and ((_ is O_node) a!1) (= A a!3)))))
      )
      (inv_main40 A I H G F E D C B)
    )
  )
)
(assert
  (forall ( (A Int) (B Int) (C Int) (D Int) (E Int) (F Int) (G Int) (H Heap) ) 
    (=>
      (and
        (inv_main66 H G F E D C B)
        (let ((a!1 (ite (and (not (<= D 0)) (>= (HeapSize H) D))
                (select (HeapContents H) D)
                defObj)))
  (and (= F (data (getnode a!1))) ((_ is O_node) a!1) (= A (+ 1 C))))
      )
      (inv_main63 H G F E B A)
    )
  )
)
(assert
  (forall ( (A Int) (B Int) (C Int) (D Int) (E Int) (F Int) (G Heap) (H Int) (I Int) (J Int) (K Int) (L Int) (M Int) (N Int) (O Int) (P Int) (Q Heap) (v_17 Int) (v_18 Int) ) 
    (=>
      (and
        (inv_main56 Q P O N M L K J I H)
        (let ((a!1 (ite (and (not (<= H 0)) (>= (HeapSize Q) H))
                (select (HeapContents Q) H)
                defObj)))
(let ((a!2 (O_node (node (data (getnode a!1)) (next (getnode a!1)) J))))
(let ((a!3 (ite (and (not (<= H 0)) (>= (HeapSize Q) H))
                (HeapCtor (HeapSize Q) (store (HeapContents Q) H a!2))
                Q)))
  (and (= B L)
       (= A K)
       (= F P)
       (= E O)
       (= D N)
       (= G a!3)
       ((_ is O_node) a!1)
       (= C M)
       (= v_17 D)
       (= 0 v_18)))))
      )
      (inv_main63 G F E D v_17 v_18)
    )
  )
)
(assert
  (forall ( (A Int) (B Int) (C Int) (D Int) (E Int) (F Int) (G Int) (H Int) (I Heap) (J Int) (K Int) (L Int) (M Int) (N Int) (O Int) (P Int) (Q Int) (R Int) (S Int) (T Heap) (v_20 Int) (v_21 Int) ) 
    (=>
      (and
        (inv_main54 T S R Q P O N M L K)
        (let ((a!1 (ite (and (not (<= M 0)) (>= (HeapSize T) M))
                (select (HeapContents T) M)
                defObj)))
(let ((a!2 (O_node (node (data (getnode a!1)) K (prev (getnode a!1))))))
(let ((a!3 (ite (and (not (<= M 0)) (>= (HeapSize T) M))
                (HeapCtor (HeapSize T) (store (HeapContents T) M a!2))
                T)))
  (and (= E P)
       (= D O)
       (= C N)
       (= B M)
       (= A L)
       (= J 0)
       (= J K)
       (= H S)
       (= G R)
       (= I a!3)
       ((_ is O_node) a!1)
       (= F Q)
       (= v_20 F)
       (= 0 v_21)))))
      )
      (inv_main63 I H G F v_20 v_21)
    )
  )
)
(assert
  (forall ( (A Int) (B Int) (C Int) (D Int) (E Int) (F Int) (G Int) (H Int) (I Int) (J Heap) (K Int) (L Int) (M Int) (N Int) (O Int) (P Int) (Q Int) (R Int) (S Int) (T Heap) (v_20 Int) (v_21 Int) ) 
    (=>
      (and
        (inv_main60 T S R Q P O N M L K)
        (let ((a!1 (ite (and (not (<= Q 0)) (>= (HeapSize T) Q))
                (select (HeapContents T) Q)
                defObj)))
(let ((a!2 (O_node (node (data (getnode a!1)) (next (getnode a!1)) M))))
(let ((a!3 (ite (and (not (<= Q 0)) (>= (HeapSize T) Q))
                (HeapCtor (HeapSize T) (store (HeapContents T) Q a!2))
                T)))
  (and (= E O)
       (= D N)
       (= C M)
       (= B L)
       (= A K)
       (= I S)
       (= H R)
       (= G Q)
       (= J a!3)
       ((_ is O_node) a!1)
       (= F P)
       (= v_20 C)
       (= 0 v_21)))))
      )
      (inv_main63 J I H C v_20 v_21)
    )
  )
)
(assert
  (forall ( (A Int) (B Int) (C Int) (D Int) (E Int) (F Int) (G Int) (H Int) (I Heap) (J Int) (K Int) (L Int) (M Int) (N Int) (O Int) (P Int) (Q Int) (R Int) (S Int) (T Heap) (v_20 Int) (v_21 Int) ) 
    (=>
      (and
        (inv_main52 T S R Q P O N M L K)
        (let ((a!1 (ite (and (not (<= M 0)) (>= (HeapSize T) M))
                (select (HeapContents T) M)
                defObj)))
(let ((a!2 (O_node (node (data (getnode a!1)) Q (prev (getnode a!1))))))
(let ((a!3 (ite (and (not (<= M 0)) (>= (HeapSize T) M))
                (HeapCtor (HeapSize T) (store (HeapContents T) M a!2))
                T)))
  (and (= E O)
       (= D N)
       (= C M)
       (= B L)
       (= A K)
       (= J 0)
       (= J Q)
       (= H S)
       (= G R)
       (= I a!3)
       ((_ is O_node) a!1)
       (= F P)
       (= v_20 C)
       (= 0 v_21)))))
      )
      (inv_main63 I H G C v_20 v_21)
    )
  )
)
(assert
  (forall ( (A Heap) (B Int) (C Int) (D Int) (E Int) (F Int) (G Int) (H Int) (I Int) (J Int) (K Heap) ) 
    (=>
      (and
        (inv_main53 K J I H G F E D C B)
        (let ((a!1 (ite (and (not (<= D 0)) (>= (HeapSize K) D))
                (select (HeapContents K) D)
                defObj)))
(let ((a!2 (O_node (node (data (getnode a!1)) (next (getnode a!1)) C))))
(let ((a!3 (ite (and (not (<= D 0)) (>= (HeapSize K) D))
                (HeapCtor (HeapSize K) (store (HeapContents K) D a!2))
                K)))
  (and ((_ is O_node) a!1) (= A a!3)))))
      )
      (inv_main54 A J I H G F E D C B)
    )
  )
)
(assert
  (forall ( (A Int) (B Int) (C Int) (D Int) (E Int) (F Int) (G Heap) ) 
    (=>
      (and
        (inv_main12 G F E D C B A)
        (let ((a!1 (ite (and (not (<= A 0)) (>= (HeapSize G) A))
                (select (HeapContents G) A)
                defObj)))
  (not ((_ is O_node) a!1)))
      )
      CHC_COMP_FALSE
    )
  )
)
(assert
  (forall ( (A Int) (B Int) (C Int) (D Int) (E Int) (F Int) (G Heap) ) 
    (=>
      (and
        (inv_main18 G F E D C B A)
        (let ((a!1 (ite (and (not (<= A 0)) (>= (HeapSize G) A))
                (select (HeapContents G) A)
                defObj)))
  (not ((_ is O_node) a!1)))
      )
      CHC_COMP_FALSE
    )
  )
)
(assert
  (forall ( (A Int) (B Int) (C Int) (D Int) (E Int) (F Int) (G Heap) ) 
    (=>
      (and
        (inv_main19 G F E D C B A)
        (let ((a!1 (ite (and (not (<= A 0)) (>= (HeapSize G) A))
                (select (HeapContents G) A)
                defObj)))
  (not ((_ is O_node) a!1)))
      )
      CHC_COMP_FALSE
    )
  )
)
(assert
  (forall ( (A Int) (B Int) (C Int) (D Int) (E Int) (F Int) (G Heap) ) 
    (=>
      (and
        (inv_main22 G F E D C B A)
        (let ((a!1 (ite (and (not (<= B 0)) (>= (HeapSize G) B))
                (select (HeapContents G) B)
                defObj)))
  (not ((_ is O_node) a!1)))
      )
      CHC_COMP_FALSE
    )
  )
)
(assert
  (forall ( (A Int) (B Int) (C Int) (D Int) (E Int) (F Int) (G Int) (H Int) (I Heap) ) 
    (=>
      (and
        (inv_main34 I H G F E D C B A)
        (let ((a!1 (ite (and (not (<= A 0)) (>= (HeapSize I) A))
                (select (HeapContents I) A)
                defObj)))
  (not ((_ is O_node) a!1)))
      )
      CHC_COMP_FALSE
    )
  )
)
(assert
  (forall ( (A Int) (B Int) (C Int) (D Int) (E Int) (F Int) (G Int) (H Int) (I Heap) ) 
    (=>
      (and
        (inv_main40 I H G F E D C B A)
        (let ((a!1 (ite (and (not (<= A 0)) (>= (HeapSize I) A))
                (select (HeapContents I) A)
                defObj)))
  (not ((_ is O_node) a!1)))
      )
      CHC_COMP_FALSE
    )
  )
)
(assert
  (forall ( (A Int) (B Int) (C Int) (D Int) (E Int) (F Int) (G Int) (H Int) (I Heap) ) 
    (=>
      (and
        (inv_main41 I H G F E D C B A)
        (let ((a!1 (ite (and (not (<= A 0)) (>= (HeapSize I) A))
                (select (HeapContents I) A)
                defObj)))
  (not ((_ is O_node) a!1)))
      )
      CHC_COMP_FALSE
    )
  )
)
(assert
  (forall ( (A Int) (B Int) (C Int) (D Int) (E Int) (F Int) (G Int) (H Int) (I Int) (J Heap) ) 
    (=>
      (and
        (inv_main48 J I H G F E D C B A)
        (let ((a!1 (ite (and (not (<= A 0)) (>= (HeapSize J) A))
                (select (HeapContents J) A)
                defObj)))
  (not ((_ is O_node) a!1)))
      )
      CHC_COMP_FALSE
    )
  )
)
(assert
  (forall ( (A Int) (B Int) (C Int) (D Int) (E Int) (F Int) (G Int) (H Int) (I Int) (J Heap) ) 
    (=>
      (and
        (inv_main51 J I H G F E D C B A)
        (let ((a!1 (ite (and (not (<= B 0)) (>= (HeapSize J) B))
                (select (HeapContents J) B)
                defObj)))
  (not ((_ is O_node) a!1)))
      )
      CHC_COMP_FALSE
    )
  )
)
(assert
  (forall ( (A Int) (B Int) (C Int) (D Int) (E Int) (F Int) (G Int) (H Int) (I Int) (J Heap) ) 
    (=>
      (and
        (inv_main53 J I H G F E D C B A)
        (let ((a!1 (ite (and (not (<= C 0)) (>= (HeapSize J) C))
                (select (HeapContents J) C)
                defObj)))
  (not ((_ is O_node) a!1)))
      )
      CHC_COMP_FALSE
    )
  )
)
(assert
  (forall ( (A Int) (B Int) (C Int) (D Int) (E Int) (F Int) (G Int) (H Int) (I Int) (J Heap) ) 
    (=>
      (and
        (inv_main54 J I H G F E D C B A)
        (let ((a!1 (ite (and (not (<= C 0)) (>= (HeapSize J) C))
                (select (HeapContents J) C)
                defObj)))
  (not ((_ is O_node) a!1)))
      )
      CHC_COMP_FALSE
    )
  )
)
(assert
  (forall ( (A Int) (B Int) (C Int) (D Int) (E Int) (F Int) (G Int) (H Int) (I Int) (J Heap) ) 
    (=>
      (and
        (inv_main56 J I H G F E D C B A)
        (let ((a!1 (ite (and (not (<= A 0)) (>= (HeapSize J) A))
                (select (HeapContents J) A)
                defObj)))
  (not ((_ is O_node) a!1)))
      )
      CHC_COMP_FALSE
    )
  )
)
(assert
  (forall ( (A Int) (B Int) (C Int) (D Int) (E Int) (F Int) (G Int) (H Int) (I Int) (J Heap) ) 
    (=>
      (and
        (inv_main52 J I H G F E D C B A)
        (let ((a!1 (ite (and (not (<= C 0)) (>= (HeapSize J) C))
                (select (HeapContents J) C)
                defObj)))
  (not ((_ is O_node) a!1)))
      )
      CHC_COMP_FALSE
    )
  )
)
(assert
  (forall ( (A Int) (B Int) (C Int) (D Int) (E Int) (F Int) (G Int) (H Int) (I Int) (J Heap) ) 
    (=>
      (and
        (inv_main60 J I H G F E D C B A)
        (let ((a!1 (ite (and (not (<= G 0)) (>= (HeapSize J) G))
                (select (HeapContents J) G)
                defObj)))
  (not ((_ is O_node) a!1)))
      )
      CHC_COMP_FALSE
    )
  )
)
(assert
  (forall ( (A Int) (B Int) (C Int) (D Int) (E Int) (F Heap) ) 
    (=>
      (and
        (inv_main65 F E D C B A)
        (let ((a!1 (ite (and (not (<= B 0)) (>= (HeapSize F) B))
                (select (HeapContents F) B)
                defObj)))
  (not ((_ is O_node) a!1)))
      )
      CHC_COMP_FALSE
    )
  )
)
(assert
  (forall ( (A Int) (B Int) (C Int) (D Int) (E Int) (F Int) (G Heap) ) 
    (=>
      (and
        (inv_main66 G F E D C B A)
        (let ((a!1 (ite (and (not (<= C 0)) (>= (HeapSize G) C))
                (select (HeapContents G) C)
                defObj)))
  (not ((_ is O_node) a!1)))
      )
      CHC_COMP_FALSE
    )
  )
)
(assert
  (forall ( (A Int) (B Int) (C Int) (D Int) (E Int) (F Int) (G Heap) ) 
    (=>
      (and
        (inv_main78 G F E D C B A)
        (let ((a!1 (ite (and (not (<= A 0)) (>= (HeapSize G) A))
                (select (HeapContents G) A)
                defObj)))
  (not ((_ is O_node) a!1)))
      )
      CHC_COMP_FALSE
    )
  )
)
(assert
  (forall ( (A Int) (B Int) (C Int) (D Int) (E Int) (F Heap) ) 
    (=>
      (and
        (inv_main81 F E D C B A)
        true
      )
      CHC_COMP_FALSE
    )
  )
)
(assert
  (forall ( (CHC_COMP_UNUSED Bool) ) 
    (=>
      (and
        CHC_COMP_FALSE
      )
      false
    )
  )
)

(check-sat)
(exit)
